NAME : instances/20-120-tsp/instance-34.tsp
COMMENT : No Comment
TYPE : TSP
DIMENSION: 34
EDGE_WEIGHT_TYPE : EUC_2D
NODE_COORD_SECTION
1 6708 4247 
2 2012 3082 
3 9379 6474 
4 1854 6914 
5 9207 6018 
6 3294 5035 
7 7376 7161 
8 9738 630 
9 9501 6224 
10 4216 2420 
11 4039 3893 
12 1718 397 
13 5331 7645 
14 3067 6936 
15 5655 139 
16 962 3199 
17 5758 7650 
18 5906 850 
19 8798 2259 
20 4757 6950 
21 646 6378 
22 7863 1879 
23 5414 7792 
24 1673 1552 
25 5470 5029 
26 8174 6571 
27 7475 703 
28 7476 736 
29 3498 7119 
30 7127 9493 
31 3121 8470 
32 6873 4968 
33 5637 8541 
34 8072 7631 
EOF
